words_hard_train/220.qaiger
aag 31 12 0 1 19
2
4
8
10
16
18
26
28
32
38
56
60
62
6 3 4
12 9 10
14 7 13
20 16 19
22 2 5
24 21 23
30 27 29
34 31 32
36 26 28
40 37 38
42 34 41
44 17 18
46 42 45
48 24 47
50 14 49
52 8 11
54 51 53
58 55 56
62 59 60
i0 2 y2[4]
i1 1 x2[4]
i2 2 y2[5]
i3 1 x2[5]
i4 2 y2[3]
i5 1 x2[3]
i6 2 y2[0]
i7 2 y2[1]
i8 2 y2[2]
i9 1 x2[1]
i10 2 y2[6]
i11 2 y2[7]
o0 bv[0]
c
simplified
  >
    or
      add
        1
        unary minus
          -196
      1 x2
    2 y2
