words_hard_train/220.qaiger.qdimacs
p cnf 31 58
a 9 2 19 5 0
e 1 3 4 6 7 8 10 11 12 13 14 15 16 17 18 20 21 22 23 24 25 26 27 28 29 30 31 0
1 -2 3 0
-1 -3 0
2 -3 0
4 -5 6 0
-4 -6 0
5 -6 0
3 6 7 0
-3 -7 0
-6 -7 0
-8 9 10 0
8 -10 0
-9 -10 0
-1 2 11 0
1 -11 0
-2 -11 0
10 11 12 0
-10 -12 0
-11 -12 0
13 14 15 0
-13 -15 0
-14 -15 0
15 -16 17 0
-15 -17 0
16 -17 0
-13 -14 18 0
13 -18 0
14 -18 0
18 -19 20 0
-18 -20 0
19 -20 0
-17 20 21 0
17 -21 0
-20 -21 0
8 -9 22 0
-8 -22 0
9 -22 0
-21 22 23 0
21 -23 0
-22 -23 0
-12 23 24 0
12 -24 0
-23 -24 0
-7 24 25 0
7 -25 0
-24 -25 0
-4 5 26 0
4 -26 0
-5 -26 0
25 26 27 0
-25 -27 0
-26 -27 0
27 -28 29 0
-27 -29 0
28 -29 0
29 -30 31 0
-29 -31 0
30 -31 0
31 0
